&control
    calculation='CALCULATION'
    restart_mode='RESTART_MODE',
    prefix='PREFIX'
    wf_collect = .WF_COLLECT.
    pseudo_dir='PSEUDO_DIR'
    verbosity='VERBOSITY'
    tprnfor=.TPRNFOR.
    nstep=NSTEP
    tstress=.TSTRESS.
    etot_conv_thr=ETOT_CONV_THR
    forc_conv_thr=FORC_CONV_THR
/
&electrons
    diagonalization='DIAGONALIZATION'
    conv_thr = CONV_THR
    mixing_beta = MIXING_BETA
    electron_maxstep = ELECTRON_MAXSTEP
    mixing_mode = 'MIXING_MODE'
/
&IONS
  ion_dynamics = 'ION_DYNAMICS'
  pot_extrapolation='POT_EXTRAPOLATION'
  wfc_extrapolation='WFC_EXTRAPOLATION'
/
&CELL
  cell_dynamics = 'CELL_DYNAMICS'
  wmass=WMASS
  cell_factor=CELL_FACTOR
/
&system
    ecutwfc = ECUTWFC, ecutrho=ECUTRHO,
    occupations = 'OCCUPATIONS' ,
    noncolin = .NONCOLIN.
    lspinorb = .LSPINORB.
    london = .LONDON.
    nbnd = NBND
